# Solution for model r3_t27_m2_1 Batch Number: 3
# Finished Task: 27 / 27
# Makespan: 649.0, Total Distance: 543.0, Total Time: 2.7416
# R O S F Batch
0 0 13 0.0 0.0 -1
1 1 4 0.0 0.0 -1
2 2 18 0.0 0.0 -1
3 1 8 256.0 295.0 0
4 1 15 77.0 114.0 0
5 0 -1 512.0 544.0 2
6 0 20 245.0 279.0 0
7 2 28 209.0 242.0 0
8 1 25 307.0 330.0 0
9 1 21 541.0 571.0 2
10 0 6 211.0 245.0 0
11 2 24 482.0 516.0 2
12 2 16 394.0 426.0 1
13 0 10 156.0 188.0 0
14 1 22 375.0 401.0 2
15 1 23 161.0 185.0 0
16 2 11 426.0 464.0 2
17 0 5 449.0 480.0 2
18 2 7 40.0 77.0 0
19 2 26 315.0 339.0 1
20 0 17 317.0 354.0 1
21 1 -1 571.0 606.0 2
22 1 27 418.0 449.0 2
23 1 3 194.0 230.0 0
24 2 29 549.0 588.0 2
25 1 14 338.0 367.0 1
26 2 12 339.0 376.0 1
27 1 9 482.0 505.0 2
28 2 19 253.0 284.0 0
29 2 -1 618.0 649.0 2
